
n_res = 6;
rcap = [33, 35, 36, 38, 1430, 1259];
rtype = [1, 1, 1, 1, 2, 2];
n_tasks = 100;
modes =  [{1, 2, 3}, {4, 5, 6}, {7, 8, 9}, {10, 11, 12}, {13, 14, 15}, {16, 17, 18}, {19, 20, 21}, {22, 23, 24}, {25, 26, 27}, {28, 29, 30}, {31, 32, 33}, {34, 35, 36}, {37, 38, 39}, {40, 41, 42}, {43, 44, 45}, {46, 47, 48}, {49, 50, 51}, {52, 53, 54}, {55, 56, 57}, {58, 59, 60}, {61, 62, 63}, {64, 65, 66}, {67, 68, 69}, {70, 71, 72}, {73, 74, 75}, {76, 77, 78}, {79, 80, 81}, {82, 83, 84}, {85, 86, 87}, {88, 89, 90}, {91, 92, 93}, {94, 95, 96}, {97, 98, 99}, {100, 101, 102}, {103, 104, 105}, {106, 107, 108}, {109, 110, 111}, {112, 113, 114}, {115, 116, 117}, {118, 119, 120}, {121, 122, 123}, {124, 125, 126}, {127, 128, 129}, {130, 131, 132}, {133, 134, 135}, {136, 137, 138}, {139, 140, 141}, {142, 143, 144}, {145, 146, 147}, {148, 149, 150}, {151, 152, 153}, {154, 155, 156}, {157, 158, 159}, {160, 161, 162}, {163, 164, 165}, {166, 167, 168}, {169, 170, 171}, {172, 173, 174}, {175, 176, 177}, {178, 179, 180}, {181, 182, 183}, {184, 185, 186}, {187, 188, 189}, {190, 191, 192}, {193, 194, 195}, {196, 197, 198}, {199, 200, 201}, {202, 203, 204}, {205, 206, 207}, {208, 209, 210}, {211, 212, 213}, {214, 215, 216}, {217, 218, 219}, {220, 221, 222}, {223, 224, 225}, {226, 227, 228}, {229, 230, 231}, {232, 233, 234}, {235, 236, 237}, {238, 239, 240}, {241, 242, 243}, {244, 245, 246}, {247, 248, 249}, {250, 251, 252}, {253, 254, 255}, {256, 257, 258}, {259, 260, 261}, {262, 263, 264}, {265, 266, 267}, {268, 269, 270}, {271, 272, 273}, {274, 275, 276}, {277, 278, 279}, {280, 281, 282}, {283, 284, 285}, {286, 287, 288}, {289, 290, 291}, {292, 293, 294}, {295, 296, 297}, {298, 299, 300}];
succ =  [{24, 16, 15, 14, 6}, {18, 17, 15, 8}, {27, 20, 19, 18, 17, 14}, {19, 18, 17, 15, 14}, {24, 20, 19, 18, 14}, {20, 18, 17, 13}, {24, 19, 18, 14}, {31, 29, 28, 25, 24, 23, 22, 21, 20}, {31, 21, 20, 19, 18}, {30, 29, 21, 15}, {22, 19, 18}, {35, 33, 31, 30, 29, 28, 23}, {42, 35, 28, 27, 26, 19}, {39, 35, 33, 31, 30, 28, 25, 21}, {42, 35, 31, 28, 27, 26, 25}, {35, 29, 26, 19}, {42, 41, 39, 38, 36, 35, 33, 31, 30, 26}, {35, 29, 23}, {39, 37, 33, 32, 30, 25}, {41, 36, 35, 33, 30, 26}, {52, 42, 41, 40, 38, 37, 36, 34, 32}, {52, 41, 40, 38, 37, 33, 32, 30}, {41, 38, 37, 36, 26}, {42, 41, 38, 36, 26}, {53, 52, 47, 43, 41, 40, 38, 36}, {52, 46, 40, 34, 32}, {47, 44, 39, 36, 33}, {52, 47, 44, 41, 38, 34}, {54, 47, 45, 43, 42, 39, 36}, {50, 49, 46, 34}, {59, 57, 56, 54, 53, 51, 48, 47, 46, 45, 44}, {56, 54, 53, 50, 47, 44, 43}, {34}, {61, 56, 54, 53, 51, 45, 43}, {54, 53, 37}, {67, 65, 62, 59, 57, 56, 55, 51, 50, 49, 48, 46}, {62, 59, 57, 56, 48, 46, 45}, {67, 62, 60, 56, 55, 51, 50, 49, 48}, {65, 58, 56, 55, 53, 49, 48}, {59, 54, 51, 48, 45}, {71, 69, 68, 67, 65, 62, 61, 58, 57, 55}, {71, 68, 67, 65, 60, 58, 57, 49}, {68, 65, 60, 59, 58, 57, 48}, {71, 69, 68, 62, 60, 58, 49}, {77, 65, 64, 60, 58, 55}, {77, 68, 64, 63, 61, 60}, {77, 74, 73, 71, 61, 58}, {77, 74, 73, 71, 69, 66, 63}, {77, 74, 66, 64, 63, 61}, {77, 69, 68, 64, 63, 61}, {77, 68, 64, 58}, {77, 64, 58}, {74, 73, 68, 67, 62}, {88, 77, 76, 74, 73, 66}, {88, 76, 74, 73, 66}, {88, 82, 76, 74, 73, 70, 68}, {74, 72, 70, 64}, {80, 66, 63}, {85, 80, 70, 63}, {76, 74, 66}, {88, 85, 79, 76, 72, 70}, {85, 80, 72, 70}, {88, 87, 79, 78, 76, 72}, {88, 84, 80, 78, 75, 73}, {85, 84, 82, 80, 70}, {85, 72, 70}, {88, 84, 82, 80, 79, 78, 77}, {100, 87, 85, 84, 81, 80, 78}, {88, 84, 82, 81, 75}, {99, 97, 83, 81, 78, 75}, {89, 88, 85, 81, 80}, {98, 95, 84, 82, 81}, {97, 89, 81, 79}, {99, 93, 85, 83, 80}, {100, 98, 95, 94, 93, 90, 87}, {98, 97, 95, 94, 81}, {95, 87, 86, 83}, {94, 93, 92, 90, 89}, {100, 95, 83}, {96, 95, 94, 92, 91, 90}, {92, 86}, {83}, {94, 92, 91, 90}, {99, 97, 93, 90}, {98, 97, 96, 91}, {93, 91, 90}, {96, 92, 91}, {96, 93, 90}, {96, 95}, {}, {}, {}, {}, {}, {}, {}, {}, {}, {}, {}];
n_opt = 300;
dur = [9, 10, 12, 5, 23, 24, 2, 4, 16, 5, 21, 27, 14, 16, 30, 7, 12, 20, 3, 10, 22, 4, 5, 29, 1, 5, 29, 8, 10, 13, 4, 13, 25, 5, 13, 18, 9, 13, 21, 8, 16, 28, 8, 20, 21, 8, 12, 13, 12, 18, 24, 13, 29, 30, 4, 10, 12, 4, 6, 12, 1, 24, 30, 18, 21, 24, 3, 12, 20, 6, 11, 25, 1, 23, 29, 12, 26, 29, 23, 25, 28, 2, 21, 28, 1, 8, 15, 15, 20, 29, 5, 10, 21, 10, 19, 22, 1, 2, 27, 2, 4, 5, 11, 14, 22, 22, 26, 30, 8, 22, 23, 14, 15, 30, 14, 17, 22, 5, 15, 25, 11, 12, 30, 19, 23, 27, 2, 10, 16, 9, 14, 24, 14, 18, 19, 8, 9, 30, 4, 27, 29, 5, 9, 12, 10, 17, 25, 8, 20, 23, 18, 26, 27, 2, 5, 20, 4, 19, 23, 19, 29, 30, 6, 11, 22, 5, 9, 25, 1, 7, 20, 11, 18, 19, 2, 17, 26, 4, 13, 19, 12, 26, 30, 18, 21, 29, 12, 17, 23, 5, 9, 22, 1, 23, 30, 1, 9, 10, 16, 25, 27, 17, 21, 22, 4, 12, 27, 8, 25, 29, 14, 15, 19, 4, 10, 20, 2, 6, 7, 1, 22, 23, 8, 20, 26, 6, 14, 19, 13, 21, 25, 3, 6, 11, 6, 15, 24, 16, 17, 18, 5, 10, 15, 18, 19, 20, 3, 15, 22, 4, 15, 29, 6, 11, 27, 5, 26, 27, 9, 19, 24, 12, 14, 17, 7, 16, 22, 5, 6, 27, 1, 11, 27, 1, 25, 29, 12, 28, 30, 4, 7, 19, 4, 8, 10, 9, 16, 22, 22, 23, 30, 10, 29, 30, 1, 6, 7, 10, 15, 21];
rreq = [|3, 3, 3, 5, 5, 5, 3, 2, 2, 5, 3, 3, 3, 1, 1, 3, 3, 2, 5, 3, 3, 3, 2, 2, 2, 1, 1, 3, 3, 2, 1, 1, 1, 3, 2, 2, 4, 4, 4, 5, 3, 3, 2, 1, 1, 2, 2, 1, 4, 3, 3, 4, 3, 1, 4, 4, 4, 3, 2, 1, 5, 3, 3, 2, 2, 2, 3, 2, 1, 2, 2, 2, 4, 3, 3, 5, 2, 1, 4, 2, 1, 3, 3, 3, 5, 3, 3, 4, 4, 4, 4, 4, 3, 4, 3, 2, 2, 2, 2, 2, 1, 1, 2, 1, 1, 4, 4, 4, 4, 3, 3, 5, 2, 2, 2, 1, 1, 3, 2, 1, 5, 4, 4, 5, 3, 1, 2, 2, 1, 4, 3, 3, 1, 1, 1, 5, 3, 3, 5, 5, 5, 3, 3, 3, 5, 4, 4, 3, 3, 1, 5, 4, 4, 5, 4, 4, 4, 2, 2, 1, 1, 1, 2, 2, 2, 2, 2, 2, 3, 2, 2, 4, 3, 2, 3, 2, 2, 2, 2, 2, 2, 2, 2, 4, 3, 2, 5, 3, 3, 4, 4, 4, 3, 2, 2, 2, 2, 2, 4, 4, 4, 5, 4, 2, 4, 4, 4, 5, 5, 5, 1, 1, 1, 3, 3, 3, 4, 4, 4, 1, 1, 1, 2, 1, 1, 4, 4, 4, 2, 2, 2, 3, 2, 1, 4, 4, 2, 2, 2, 2, 2, 2, 2, 3, 3, 3, 3, 3, 2, 4, 3, 3, 3, 2, 1, 4, 3, 3, 5, 5, 5, 4, 3, 3, 4, 3, 1, 3, 3, 2, 3, 3, 1, 1, 1, 1, 4, 3, 3, 4, 2, 1, 3, 3, 3, 4, 4, 4, 4, 3, 1, 3, 3, 3, 2, 2, 1, 2, 2, 2
 |4, 4, 4, 5, 3, 2, 4, 4, 2, 4, 3, 3, 3, 2, 2, 3, 2, 2, 4, 3, 1, 2, 2, 2, 3, 3, 2, 3, 2, 2, 1, 1, 1, 3, 2, 2, 5, 4, 2, 5, 4, 4, 2, 2, 2, 4, 4, 4, 4, 3, 3, 4, 2, 1, 4, 4, 3, 3, 2, 2, 3, 2, 2, 4, 4, 2, 4, 4, 4, 5, 4, 2, 2, 2, 2, 3, 2, 1, 3, 3, 1, 5, 4, 2, 2, 2, 2, 3, 2, 1, 5, 4, 3, 5, 5, 5, 4, 4, 4, 5, 3, 2, 4, 4, 4, 1, 1, 1, 2, 2, 2, 3, 3, 3, 2, 2, 2, 4, 4, 4, 2, 2, 1, 4, 3, 3, 4, 4, 4, 3, 2, 2, 3, 2, 2, 2, 2, 2, 4, 4, 3, 4, 3, 3, 5, 4, 4, 3, 3, 2, 5, 4, 2, 5, 5, 5, 3, 2, 2, 4, 2, 2, 1, 1, 1, 4, 4, 4, 3, 3, 3, 4, 4, 4, 3, 3, 3, 3, 2, 2, 3, 2, 1, 4, 3, 3, 1, 1, 1, 4, 2, 1, 4, 3, 3, 5, 3, 2, 4, 3, 2, 4, 4, 3, 3, 3, 1, 4, 3, 2, 4, 4, 4, 4, 2, 2, 5, 3, 3, 3, 3, 3, 2, 1, 1, 4, 3, 3, 2, 2, 2, 2, 2, 1, 4, 3, 2, 3, 3, 3, 5, 4, 4, 3, 3, 1, 4, 2, 1, 4, 3, 3, 3, 3, 3, 4, 2, 1, 3, 3, 3, 4, 3, 3, 5, 5, 5, 5, 4, 3, 5, 4, 4, 4, 3, 1, 2, 2, 2, 4, 4, 3, 1, 1, 1, 5, 4, 3, 2, 1, 1, 2, 1, 1, 4, 4, 4, 3, 2, 2
 |3, 2, 2, 3, 3, 3, 5, 3, 3, 4, 4, 4, 1, 1, 1, 3, 3, 2, 4, 2, 2, 3, 3, 3, 4, 4, 4, 4, 3, 2, 5, 3, 2, 4, 2, 2, 4, 4, 4, 4, 4, 4, 4, 4, 3, 3, 3, 3, 3, 3, 1, 4, 2, 2, 5, 4, 2, 3, 2, 1, 5, 4, 4, 1, 1, 1, 3, 2, 1, 5, 5, 5, 5, 2, 2, 2, 1, 1, 3, 3, 2, 1, 1, 1, 5, 5, 5, 5, 3, 3, 3, 2, 2, 4, 3, 2, 3, 1, 1, 1, 1, 1, 2, 1, 1, 4, 3, 2, 3, 2, 2, 4, 3, 1, 4, 3, 2, 2, 2, 2, 3, 2, 1, 4, 3, 3, 4, 3, 2, 3, 3, 3, 2, 2, 2, 5, 3, 3, 4, 4, 3, 5, 4, 4, 4, 4, 4, 3, 3, 3, 5, 3, 1, 3, 2, 1, 2, 2, 2, 5, 4, 2, 4, 2, 1, 2, 2, 2, 3, 3, 2, 3, 3, 2, 4, 4, 3, 3, 3, 1, 5, 3, 2, 4, 4, 4, 5, 4, 4, 4, 4, 4, 1, 1, 1, 4, 4, 3, 2, 2, 2, 3, 2, 2, 4, 2, 2, 2, 1, 1, 3, 3, 3, 3, 3, 3, 3, 2, 2, 3, 3, 2, 2, 2, 2, 3, 3, 3, 3, 2, 2, 4, 3, 1, 5, 4, 4, 3, 3, 3, 1, 1, 1, 3, 3, 3, 3, 3, 3, 4, 3, 2, 1, 1, 1, 1, 1, 1, 2, 1, 1, 3, 3, 3, 3, 3, 3, 1, 1, 1, 4, 3, 2, 4, 2, 1, 3, 3, 2, 3, 3, 3, 3, 3, 1, 4, 4, 4, 4, 4, 2, 4, 3, 2, 3, 1, 1, 3, 3, 3
 |2, 2, 2, 5, 5, 5, 2, 2, 2, 4, 4, 4, 5, 3, 3, 4, 3, 3, 3, 3, 3, 2, 1, 1, 3, 3, 3, 3, 3, 3, 5, 4, 2, 3, 2, 2, 5, 4, 3, 2, 1, 1, 4, 3, 3, 4, 4, 3, 1, 1, 1, 1, 1, 1, 4, 4, 3, 4, 3, 3, 3, 2, 2, 1, 1, 1, 3, 1, 1, 2, 2, 1, 4, 2, 1, 5, 4, 2, 2, 1, 1, 5, 5, 5, 4, 4, 4, 4, 3, 2, 1, 1, 1, 5, 3, 3, 5, 4, 4, 4, 3, 2, 1, 1, 1, 3, 3, 3, 3, 2, 2, 2, 1, 1, 3, 3, 3, 3, 2, 2, 5, 5, 5, 3, 2, 2, 5, 3, 1, 2, 2, 1, 1, 1, 1, 5, 3, 3, 4, 3, 1, 5, 2, 1, 5, 3, 2, 2, 1, 1, 5, 5, 5, 5, 4, 4, 5, 4, 2, 5, 4, 3, 2, 2, 2, 3, 3, 3, 5, 4, 4, 5, 3, 1, 4, 4, 3, 4, 4, 4, 3, 3, 1, 3, 3, 1, 2, 1, 1, 2, 1, 1, 3, 3, 3, 1, 1, 1, 3, 2, 1, 1, 1, 1, 2, 2, 2, 3, 1, 1, 2, 2, 2, 2, 1, 1, 2, 2, 2, 4, 4, 4, 2, 2, 2, 2, 2, 1, 3, 3, 3, 4, 4, 4, 4, 4, 4, 5, 5, 5, 2, 2, 2, 1, 1, 1, 3, 3, 2, 4, 4, 2, 5, 5, 5, 4, 4, 4, 4, 2, 2, 2, 1, 1, 2, 2, 2, 4, 4, 4, 3, 2, 2, 2, 2, 2, 3, 3, 2, 3, 2, 1, 4, 4, 4, 5, 3, 1, 4, 4, 4, 5, 4, 3, 1, 1, 1, 4, 4, 4
 |26, 17, 3, 18, 17, 16, 18, 16, 13, 25, 22, 22, 26, 17, 11, 23, 15, 6, 20, 18, 16, 23, 18, 13, 25, 21, 14, 14, 12, 8, 14, 8, 2, 18, 16, 10, 22, 19, 19, 15, 14, 14, 29, 17, 9, 17, 14, 14, 19, 18, 18, 17, 12, 11, 20, 16, 13, 26, 10, 7, 19, 13, 13, 25, 22, 17, 27, 27, 27, 4, 4, 4, 25, 24, 23, 28, 23, 22, 6, 5, 4, 23, 21, 21, 21, 17, 15, 15, 12, 7, 26, 24, 21, 26, 26, 21, 11, 10, 8, 26, 24, 24, 9, 6, 4, 25, 22, 21, 20, 13, 11, 19, 17, 14, 27, 26, 24, 18, 8, 6, 20, 19, 12, 6, 6, 3, 16, 16, 16, 24, 24, 23, 23, 13, 6, 16, 15, 14, 24, 16, 4, 25, 14, 10, 12, 7, 3, 26, 22, 18, 16, 7, 3, 28, 20, 12, 26, 15, 8, 19, 16, 12, 27, 24, 24, 12, 7, 5, 23, 19, 9, 22, 17, 10, 15, 12, 10, 19, 15, 11, 22, 10, 6, 29, 29, 29, 15, 13, 9, 19, 17, 17, 21, 20, 19, 21, 17, 14, 20, 20, 15, 18, 18, 18, 27, 27, 27, 11, 9, 8, 11, 7, 3, 17, 13, 5, 5, 5, 3, 9, 9, 8, 20, 13, 5, 22, 19, 18, 15, 13, 13, 27, 16, 9, 22, 14, 11, 28, 19, 14, 25, 23, 23, 19, 12, 10, 13, 9, 5, 16, 14, 7, 6, 5, 5, 14, 13, 12, 28, 28, 25, 11, 8, 6, 25, 23, 23, 17, 17, 15, 17, 9, 8, 15, 15, 15, 20, 19, 12, 16, 11, 7, 21, 17, 11, 11, 10, 7, 24, 22, 15, 10, 8, 7, 16, 15, 14, 28, 23, 22
 |3, 2, 2, 21, 12, 4, 24, 13, 8, 24, 11, 8, 16, 12, 6, 22, 18, 15, 23, 18, 15, 9, 6, 6, 24, 12, 12, 21, 20, 16, 11, 8, 6, 23, 22, 21, 17, 15, 13, 16, 16, 15, 21, 14, 6, 9, 9, 8, 28, 22, 19, 10, 7, 6, 2, 2, 1, 10, 10, 10, 27, 27, 24, 18, 11, 6, 24, 19, 10, 25, 20, 17, 7, 5, 3, 17, 14, 3, 2, 2, 2, 13, 11, 10, 9, 8, 8, 19, 19, 19, 25, 16, 9, 22, 20, 15, 4, 2, 2, 16, 15, 14, 12, 12, 11, 12, 8, 4, 17, 16, 16, 21, 14, 13, 10, 6, 2, 27, 19, 17, 21, 12, 12, 16, 14, 13, 24, 19, 18, 26, 25, 22, 14, 11, 10, 11, 10, 9, 6, 5, 4, 16, 16, 15, 18, 17, 17, 13, 11, 7, 15, 14, 10, 28, 18, 13, 20, 16, 7, 25, 21, 15, 15, 14, 13, 17, 16, 12, 27, 20, 14, 12, 12, 11, 16, 15, 15, 18, 12, 9, 20, 17, 16, 13, 13, 12, 16, 9, 3, 5, 4, 3, 16, 11, 9, 22, 20, 14, 24, 12, 8, 27, 24, 22, 20, 7, 4, 15, 13, 13, 24, 20, 17, 18, 14, 11, 25, 24, 23, 19, 13, 7, 21, 19, 13, 9, 9, 9, 7, 4, 3, 15, 12, 5, 28, 27, 27, 21, 9, 1, 20, 15, 11, 20, 10, 3, 19, 16, 3, 20, 14, 14, 24, 18, 18, 12, 6, 4, 29, 25, 25, 27, 17, 15, 3, 3, 3, 5, 3, 3, 17, 16, 16, 27, 18, 13, 21, 16, 11, 26, 20, 20, 16, 16, 14, 16, 15, 14, 26, 25, 20, 5, 5, 2, 16, 14, 11, 12, 11, 10|];